116 483 383 324 473 253 240 164 23 0
461 838 737 797 696 640 711 567 333 385
863 832 797 770 363 696 266 240 187 11
83 130 269 188 357 410 332 640 668 748
5 83 622 466 285 210 357 130 748 787
765 737 711 436 630 563 645 448 385 250
669 581 566 448 483 386 194 266 0 118
737 669 593 563 437 470 421 341 250 194
703 757 187 386 269 324 536 668 118 39
0 5 24 44 56 150 437 536 567 663
